NAME : eil51_reduced_15
TYPE : TSP
DIMENSION : 15
EDGE_WEIGHT_TYPE : EUC_2D
NODE_COORD_SECTION
36 63 69
35 62 63
3 52 64
20 57 58
28 43 67
31 37 69
29 58 48
21 62 42
22 42 57
2 49 49
26 27 68
34 61 33
16 52 41
50 56 37
8 31 62
EOF
